62	0

0	3	2	3	4
6	4	6	8	10	15
4	2	5	7
4	2	5	7
2	4	6	8	10	15
9	2	17	19
9	2	16	22
1	5	9	11	12	14	18
5	1	13
3	5	12	13	14	18	20
4	2	13	20
6	2	17	19
2	2	16	22
7	7	21	23	24	25	26	27	32
7	2	16	22
1	2	17	19
1	7	21	23	24	25	26	27	32
9	5	25	26	27	31	32
4	4	25	26	27	31
10	3	26	27	31
8	5	28	33	34	36	37
4	5	25	26	27	31	32
6	5	28	29	30	31	35
7	5	28	29	30	35	37
9	3	33	34	36
2	5	28	29	30	35	37
9	3	33	34	36
8	5	38	39	41	44	46
7	3	33	34	36
9	5	38	39	41	44	46
3	4	33	34	36	37
7	4	33	34	36	37
4	1	38
2	5	38	39	41	44	46
9	5	38	39	41	44	46
10	5	40	43	45	47	49
10	6	40	42	43	45	47	49
5	6	40	42	43	45	47	49
8	5	40	43	45	47	49
3	6	48	50	51	52	53	58
10	3	47	48	49
10	5	50	51	52	53	58
10	3	51	53	58
10	3	47	48	49
5	5	50	51	52	53	58
9	3	47	48	49
8	3	51	53	58
10	2	54	55
3	5	50	51	52	53	58
7	2	56	57
4	3	55	56	57
4	2	54	55
3	2	54	55
3	2	56	57
9	2	59	60
10	2	59	60
10	2	59	60
10	2	59	60
1	1	61
6	1	62
7	1	62
0	0
